p tw 225 47251 2 
1 3 
1 4 
1 5 
1 6 
1 7 
1 8 
1 9 
1 10 
1 11 
1 12 
1 13 
1 14 
1 15 
1 16 
1 18 
1 31 
1 44 
1 46 
1 58 
1 61 
1 72 
1 76 
1 86 
1 91 
1 100 
1 106 
1 114 
1 121 
1 128 
1 136 
1 141 
1 151 
1 157 
1 166 
1 170 
1 181 
1 184 
1 196 
1 210 
1 211 
1 212 
2 3 
2 4 
2 5 
2 6 
2 7 
2 8 
2 9 
2 10 
2 11 
2 12 
2 13 
2 14 
2 15 
2 17 
2 28 
2 32 
2 45 
2 47 
2 48 
2 62 
2 66 
2 77 
2 89 
2 91 
2 92 
2 107 
2 117 
2 122 
2 131 
2 137 
2 145 
2 152 
2 159 
2 167 
2 169 
2 182 
2 185 
2 197 
2 203 
2 212 
2 217 
3 4 
3 5 
3 6 
3 7 
3 8 
3 9 
3 10 
3 11 
3 12 
3 13 
3 14 
3 15 
3 17 
3 18 
3 33 
3 38 
3 48 
3 57 
3 63 
3 74 
3 78 
3 90 
3 93 
3 96 
3 108 
3 116 
3 123 
3 130 
3 138 
3 142 
3 151 
3 153 
3 168 
3 178 
3 183 
3 189 
3 198 
3 200 
3 213 
3 214 
4 5 
4 6 
4 7 
4 8 
4 9 
4 10 
4 11 
4 12 
4 13 
4 14 
4 15 
4 16 
4 19 
4 34 
4 42 
4 49 
4 56 
4 64 
4 65 
4 79 
4 85 
4 94 
4 103 
4 109 
4 120 
4 122 
4 124 
4 139 
4 144 
4 154 
4 164 
4 169 
4 173 
4 184 
4 187 
4 198 
4 199 
4 214 
4 216 
5 6 
5 7 
5 8 
5 9 
5 10 
5 11 
5 12 
5 13 
5 14 
5 15 
5 20 
5 26 
5 35 
5 40 
5 47 
5 50 
5 65 
5 67 
5 80 
5 88 
5 94 
5 95 
5 106 
5 110 
5 125 
5 132 
5 140 
5 143 
5 155 
5 165 
5 170 
5 174 
5 185 
5 186 
5 200 
5 209 
5 213 
5 215 
6 7 
6 8 
6 9 
6 10 
6 11 
6 12 
6 13 
6 14 
6 15 
6 21 
6 29 
6 35 
6 36 
6 49 
6 51 
6 63 
6 66 
6 81 
6 82 
6 96 
6 99 
6 111 
6 113 
6 126 
6 135 
6 141 
6 148 
6 156 
6 162 
6 171 
6 176 
6 186 
6 190 
6 197 
6 201 
6 211 
6 216 
7 8 
7 9 
7 10 
7 11 
7 12 
7 13 
7 14 
7 15 
7 21 
7 22 
7 31 
7 37 
7 52 
7 60 
7 67 
7 70 
7 82 
7 84 
7 97 
7 98 
7 109 
7 112 
7 123 
7 127 
7 142 
7 147 
7 155 
7 157 
7 167 
7 172 
7 187 
7 194 
7 202 
7 208 
7 217 
7 221 
8 9 
8 10 
8 11 
8 12 
8 13 
8 14 
8 15 
8 23 
8 24 
8 36 
8 38 
8 52 
8 53 
8 68 
8 75 
8 79 
8 83 
8 92 
8 98 
8 110 
8 113 
8 121 
8 128 
8 143 
8 149 
8 158 
8 163 
8 168 
8 173 
8 188 
8 192 
8 203 
8 206 
8 218 
8 220 
9 10 
9 11 
9 12 
9 13 
9 14 
9 15 
9 24 
9 27 
9 32 
9 39 
9 46 
9 54 
9 69 
9 73 
9 78 
9 84 
9 97 
9 99 
9 114 
9 119 
9 126 
9 129 
9 140 
9 144 
9 159 
9 161 
9 174 
9 175 
9 189 
9 195 
9 199 
9 204 
9 218 
9 219 
10 11 
10 12 
10 13 
10 14 
10 15 
10 22 
10 25 
10 34 
10 40 
10 54 
10 55 
10 62 
10 70 
10 81 
10 85 
10 95 
10 100 
10 108 
10 115 
10 130 
10 133 
10 145 
10 146 
10 158 
10 160 
10 175 
10 179 
10 181 
10 190 
10 205 
10 207 
10 220 
10 225 
11 12 
11 13 
11 14 
11 15 
11 25 
11 26 
11 39 
11 41 
11 53 
11 56 
11 64 
11 71 
11 80 
11 86 
11 101 
11 105 
11 112 
11 116 
11 131 
11 134 
11 137 
11 146 
11 156 
11 161 
11 176 
11 177 
11 183 
11 191 
11 196 
11 206 
11 221 
11 223 
12 13 
12 14 
12 15 
12 19 
12 27 
12 33 
12 42 
12 50 
12 57 
12 71 
12 72 
12 77 
12 87 
12 102 
12 104 
12 117 
12 118 
12 127 
12 132 
12 136 
12 147 
12 160 
12 162 
12 177 
12 180 
12 188 
12 192 
12 201 
12 207 
12 219 
12 222 
13 14 
13 15 
13 28 
13 30 
13 41 
13 43 
13 55 
13 58 
13 69 
13 73 
13 83 
13 88 
13 102 
13 103 
13 111 
13 118 
13 125 
13 133 
13 139 
13 148 
13 153 
13 163 
13 166 
13 178 
13 182 
13 193 
13 202 
13 208 
13 223 
13 224 
14 15 
14 20 
14 29 
14 43 
14 44 
14 51 
14 59 
14 68 
14 74 
14 76 
14 89 
14 93 
14 104 
14 107 
14 119 
14 129 
14 134 
14 149 
14 150 
14 154 
14 164 
14 172 
14 179 
14 191 
14 194 
14 205 
14 209 
14 222 
14 224 
15 23 
15 30 
15 37 
15 45 
15 59 
15 60 
15 61 
15 75 
15 87 
15 90 
15 101 
15 105 
15 115 
15 120 
15 124 
15 135 
15 138 
15 150 
15 152 
15 165 
15 171 
15 180 
15 193 
15 195 
15 204 
15 210 
15 215 
15 225 
16 17 
16 18 
16 19 
16 20 
16 21 
16 22 
16 23 
16 24 
16 25 
16 26 
16 27 
16 28 
16 29 
16 30 
16 31 
16 42 
16 46 
16 56 
16 61 
16 65 
16 76 
16 85 
16 91 
16 103 
16 106 
16 120 
16 121 
16 122 
16 136 
16 144 
16 151 
16 164 
16 166 
16 173 
16 181 
16 187 
16 196 
16 198 
16 211 
16 216 
17 18 
17 19 
17 20 
17 21 
17 22 
17 23 
17 24 
17 25 
17 26 
17 27 
17 28 
17 29 
17 30 
17 32 
17 38 
17 47 
17 57 
17 62 
17 74 
17 77 
17 90 
17 92 
17 96 
17 107 
17 116 
17 122 
17 130 
17 137 
17 142 
17 151 
17 152 
17 167 
17 178 
17 182 
17 189 
17 197 
17 200 
17 212 
17 214 
18 19 
18 20 
18 21 
18 22 
18 23 
18 24 
18 25 
18 26 
18 27 
18 28 
18 29 
18 30 
18 33 
18 44 
18 48 
18 58 
18 63 
18 72 
18 78 
18 86 
18 93 
18 100 
18 108 
18 114 
18 123 
18 128 
18 138 
18 141 
18 153 
18 157 
18 168 
18 170 
18 183 
18 184 
18 198 
18 210 
18 212 
18 213 
19 20 
19 21 
19 22 
19 23 
19 24 
19 25 
19 26 
19 27 
19 28 
19 29 
19 30 
19 33 
19 34 
19 49 
19 50 
19 64 
19 71 
19 77 
19 79 
19 94 
19 104 
19 109 
19 118 
19 124 
19 127 
19 136 
19 139 
19 154 
19 160 
19 169 
19 180 
19 184 
19 188 
19 199 
19 201 
19 214 
19 219 
20 21 
20 22 
20 23 
20 24 
20 25 
20 26 
20 27 
20 28 
20 29 
20 30 
20 35 
20 43 
20 50 
20 51 
20 65 
20 68 
20 76 
20 80 
20 93 
20 95 
20 107 
20 110 
20 125 
20 129 
20 140 
20 150 
20 154 
20 155 
20 170 
20 172 
20 185 
20 191 
20 200 
20 205 
20 215 
20 222 
21 22 
21 23 
21 24 
21 25 
21 26 
21 27 
21 28 
21 29 
21 30 
21 31 
21 36 
21 51 
21 60 
21 66 
21 70 
21 81 
21 84 
21 96 
21 98 
21 109 
21 111 
21 123 
21 126 
21 141 
21 147 
21 155 
21 156 
21 167 
21 171 
21 186 
21 194 
21 201 
21 208 
21 216 
21 221 
22 23 
22 24 
22 25 
22 26 
22 27 
22 28 
22 29 
22 30 
22 34 
22 37 
22 52 
22 54 
22 62 
22 67 
22 81 
22 82 
22 95 
22 97 
22 108 
22 112 
22 127 
22 133 
22 142 
22 146 
22 157 
22 158 
22 172 
22 179 
22 181 
22 187 
22 202 
22 207 
22 217 
22 225 
23 24 
23 25 
23 26 
23 27 
23 28 
23 29 
23 30 
23 37 
23 38 
23 53 
23 59 
23 61 
23 68 
23 83 
23 87 
23 98 
23 101 
23 113 
23 115 
23 124 
23 128 
23 138 
23 143 
23 152 
23 158 
23 171 
23 173 
23 188 
23 193 
23 203 
23 204 
23 215 
23 218 
24 25 
24 26 
24 27 
24 28 
24 29 
24 30 
24 36 
24 39 
24 52 
24 54 
24 69 
24 75 
24 79 
24 84 
24 92 
24 99 
24 110 
24 114 
24 121 
24 129 
24 144 
24 149 
24 159 
24 163 
24 168 
24 174 
24 189 
24 192 
24 204 
24 206 
24 219 
24 220 
25 26 
25 27 
25 28 
25 29 
25 30 
25 39 
25 40 
25 53 
25 55 
25 64 
25 70 
25 80 
25 85 
25 100 
25 105 
25 112 
25 115 
25 130 
25 134 
25 137 
25 145 
25 156 
25 160 
25 175 
25 177 
25 183 
25 190 
25 196 
25 205 
25 220 
25 223 
26 27 
26 28 
26 29 
26 30 
26 40 
26 41 
26 47 
26 56 
26 67 
26 71 
26 86 
26 88 
26 94 
26 101 
26 106 
26 116 
26 131 
26 132 
26 143 
26 146 
26 161 
26 165 
26 174 
26 176 
26 186 
26 191 
26 206 
26 209 
26 213 
26 221 
27 28 
27 29 
27 30 
27 32 
27 42 
27 46 
27 57 
27 72 
27 73 
27 78 
27 87 
27 97 
27 102 
27 117 
27 119 
27 126 
27 132 
27 140 
27 147 
27 161 
27 162 
27 175 
27 177 
27 192 
27 195 
27 199 
27 207 
27 218 
27 222 
28 29 
28 30 
28 43 
28 45 
28 48 
28 58 
28 66 
28 73 
28 88 
28 89 
28 91 
28 103 
28 117 
28 118 
28 131 
28 133 
28 145 
28 148 
28 159 
28 163 
28 169 
28 178 
28 185 
28 193 
28 203 
28 208 
28 217 
28 223 
29 30 
29 35 
29 44 
29 49 
29 59 
29 63 
29 74 
29 82 
29 89 
29 99 
29 104 
29 113 
29 119 
29 134 
29 135 
29 148 
29 149 
29 162 
29 164 
29 176 
29 179 
29 190 
29 194 
29 197 
29 209 
29 211 
29 224 
30 41 
30 45 
30 55 
30 60 
30 69 
30 75 
30 83 
30 90 
30 102 
30 105 
30 111 
30 120 
30 125 
30 135 
30 139 
30 150 
30 153 
30 165 
30 166 
30 180 
30 182 
30 195 
30 202 
30 210 
30 224 
30 225 
31 32 
31 33 
31 34 
31 35 
31 36 
31 37 
31 38 
31 39 
31 40 
31 41 
31 42 
31 43 
31 44 
31 45 
31 46 
31 60 
31 61 
31 70 
31 76 
31 84 
31 91 
31 98 
31 106 
31 109 
31 121 
31 123 
31 136 
31 147 
31 151 
31 155 
31 166 
31 167 
31 181 
31 194 
31 196 
31 208 
31 211 
31 221 
32 33 
32 34 
32 35 
32 36 
32 37 
32 38 
32 39 
32 40 
32 41 
32 42 
32 43 
32 44 
32 45 
32 46 
32 47 
32 62 
32 73 
32 77 
32 78 
32 92 
32 97 
32 107 
32 119 
32 122 
32 126 
32 137 
32 140 
32 152 
32 161 
32 167 
32 175 
32 182 
32 195 
32 197 
32 199 
32 212 
32 218 
33 34 
33 35 
33 36 
33 37 
33 38 
33 39 
33 40 
33 41 
33 42 
33 43 
33 44 
33 45 
33 48 
33 50 
33 63 
33 71 
33 77 
33 78 
33 93 
33 104 
33 108 
33 118 
33 123 
33 127 
33 136 
33 138 
33 153 
33 160 
33 168 
33 180 
33 183 
33 188 
33 198 
33 201 
33 213 
33 219 
34 35 
34 36 
34 37 
34 38 
34 39 
34 40 
34 41 
34 42 
34 43 
34 44 
34 45 
34 49 
34 54 
34 62 
34 64 
34 79 
34 81 
34 94 
34 95 
34 108 
34 109 
34 124 
34 133 
34 139 
34 146 
34 154 
34 158 
34 169 
34 179 
34 181 
34 184 
34 199 
34 207 
34 214 
34 225 
35 36 
35 37 
35 38 
35 39 
35 40 
35 41 
35 42 
35 43 
35 44 
35 45 
35 49 
35 50 
35 63 
35 65 
35 80 
35 82 
35 95 
35 99 
35 110 
35 113 
35 125 
35 135 
35 140 
35 148 
35 155 
35 162 
35 170 
35 176 
35 185 
35 190 
35 197 
35 200 
35 211 
35 215 
36 37 
36 38 
36 39 
36 40 
36 41 
36 42 
36 43 
36 44 
36 45 
36 51 
36 52 
36 66 
36 75 
36 79 
36 81 
36 92 
36 96 
36 110 
36 111 
36 121 
36 126 
36 141 
36 149 
36 156 
36 163 
36 168 
36 171 
36 186 
36 192 
36 201 
36 206 
36 216 
36 220 
37 38 
37 39 
37 40 
37 41 
37 42 
37 43 
37 44 
37 45 
37 52 
37 59 
37 61 
37 67 
37 82 
37 87 
37 97 
37 101 
37 112 
37 115 
37 124 
37 127 
37 138 
37 142 
37 152 
37 157 
37 171 
37 172 
37 187 
37 193 
37 202 
37 204 
37 215 
37 217 
38 39 
38 40 
38 41 
38 42 
38 43 
38 44 
38 45 
38 53 
38 57 
38 68 
38 74 
38 83 
38 90 
38 96 
38 98 
38 113 
38 116 
38 128 
38 130 
38 142 
38 143 
38 151 
38 158 
38 173 
38 178 
38 188 
38 189 
38 200 
38 203 
38 214 
38 218 
39 40 
39 41 
39 42 
39 43 
39 44 
39 45 
39 53 
39 54 
39 64 
39 69 
39 80 
39 84 
39 99 
39 105 
39 112 
39 114 
39 129 
39 134 
39 137 
39 144 
39 156 
39 159 
39 174 
39 177 
39 183 
39 189 
39 196 
39 204 
39 219 
39 223 
40 41 
40 42 
40 43 
40 44 
40 45 
40 47 
40 55 
40 67 
40 70 
40 85 
40 88 
40 94 
40 100 
40 106 
40 115 
40 130 
40 132 
40 143 
40 145 
40 160 
40 165 
40 174 
40 175 
40 186 
40 190 
40 205 
40 209 
40 213 
40 220 
41 42 
41 43 
41 44 
41 45 
41 55 
41 56 
41 69 
41 71 
41 83 
41 86 
41 101 
41 102 
41 111 
41 116 
41 125 
41 131 
41 139 
41 146 
41 153 
41 161 
41 166 
41 176 
41 182 
41 191 
41 202 
41 206 
41 221 
41 224 
42 43 
42 44 
42 45 
42 56 
42 57 
42 65 
42 72 
42 85 
42 87 
42 102 
42 103 
42 117 
42 120 
42 122 
42 132 
42 144 
42 147 
42 162 
42 164 
42 173 
42 177 
42 187 
42 192 
42 198 
42 207 
42 216 
42 222 
43 44 
43 45 
43 51 
43 58 
43 68 
43 73 
43 76 
43 88 
43 93 
43 103 
43 107 
43 118 
43 129 
43 133 
43 148 
43 150 
43 154 
43 163 
43 172 
43 178 
43 191 
43 193 
43 205 
43 208 
43 222 
43 223 
44 45 
44 58 
44 59 
44 72 
44 74 
44 86 
44 89 
44 100 
44 104 
44 114 
44 119 
44 128 
44 134 
44 141 
44 149 
44 157 
44 164 
44 170 
44 179 
44 184 
44 194 
44 209 
44 210 
44 212 
44 224 
45 48 
45 60 
45 66 
45 75 
45 89 
45 90 
45 91 
45 105 
45 117 
45 120 
45 131 
45 135 
45 145 
45 150 
45 159 
45 165 
45 169 
45 180 
45 185 
45 195 
45 203 
45 210 
45 217 
45 225 
46 47 
46 48 
46 49 
46 50 
46 51 
46 52 
46 53 
46 54 
46 55 
46 56 
46 57 
46 58 
46 59 
46 60 
46 61 
46 73 
46 76 
46 78 
46 91 
46 97 
46 106 
46 119 
46 121 
46 126 
46 136 
46 140 
46 151 
46 161 
46 166 
46 175 
46 181 
46 195 
46 196 
46 199 
46 211 
46 218 
47 48 
47 49 
47 50 
47 51 
47 52 
47 53 
47 54 
47 55 
47 56 
47 57 
47 58 
47 59 
47 60 
47 62 
47 67 
47 77 
47 88 
47 92 
47 94 
47 106 
47 107 
47 122 
47 132 
47 137 
47 143 
47 152 
47 165 
47 167 
47 174 
47 182 
47 186 
47 197 
47 209 
47 212 
47 213 
48 49 
48 50 
48 51 
48 52 
48 53 
48 54 
48 55 
48 56 
48 57 
48 58 
48 59 
48 60 
48 63 
48 66 
48 78 
48 89 
48 91 
48 93 
48 108 
48 117 
48 123 
48 131 
48 138 
48 145 
48 153 
48 159 
48 168 
48 169 
48 183 
48 185 
48 198 
48 203 
48 213 
48 217 
49 50 
49 51 
49 52 
49 53 
49 54 
49 55 
49 56 
49 57 
49 58 
49 59 
49 60 
49 63 
49 64 
49 79 
49 82 
49 94 
49 99 
49 109 
49 113 
49 124 
49 135 
49 139 
49 148 
49 154 
49 162 
49 169 
49 176 
49 184 
49 190 
49 197 
49 199 
49 211 
49 214 
50 51 
50 52 
50 53 
50 54 
50 55 
50 56 
50 57 
50 58 
50 59 
50 60 
50 65 
50 71 
50 77 
50 80 
50 95 
50 104 
50 110 
50 118 
50 125 
50 127 
50 136 
50 140 
50 155 
50 160 
50 170 
50 180 
50 185 
50 188 
50 200 
50 201 
50 215 
50 219 
51 52 
51 53 
51 54 
51 55 
51 56 
51 57 
51 58 
51 59 
51 60 
51 66 
51 68 
51 76 
51 81 
51 93 
51 96 
51 107 
51 111 
51 126 
51 129 
51 141 
51 150 
51 154 
51 156 
51 171 
51 172 
51 186 
51 191 
51 201 
51 205 
51 216 
51 222 
52 53 
52 54 
52 55 
52 56 
52 57 
52 58 
52 59 
52 60 
52 67 
52 75 
52 79 
52 82 
52 92 
52 97 
52 110 
52 112 
52 121 
52 127 
52 142 
52 149 
52 157 
52 163 
52 168 
52 172 
52 187 
52 192 
52 202 
52 206 
52 217 
52 220 
53 54 
53 55 
53 56 
53 57 
53 58 
53 59 
53 60 
53 64 
53 68 
53 80 
53 83 
53 98 
53 105 
53 112 
53 113 
53 128 
53 134 
53 137 
53 143 
53 156 
53 158 
53 173 
53 177 
53 183 
53 188 
53 196 
53 203 
53 218 
53 223 
54 55 
54 56 
54 57 
54 58 
54 59 
54 60 
54 62 
54 69 
54 81 
54 84 
54 95 
54 99 
54 108 
54 114 
54 129 
54 133 
54 144 
54 146 
54 158 
54 159 
54 174 
54 179 
54 181 
54 189 
54 204 
54 207 
54 219 
54 225 
55 56 
55 57 
55 58 
55 59 
55 60 
55 69 
55 70 
55 83 
55 85 
55 100 
55 102 
55 111 
55 115 
55 125 
55 130 
55 139 
55 145 
55 153 
55 160 
55 166 
55 175 
55 182 
55 190 
55 202 
55 205 
55 220 
55 224 
56 57 
56 58 
56 59 
56 60 
56 65 
56 71 
56 85 
56 86 
56 101 
56 103 
56 116 
56 120 
56 122 
56 131 
56 144 
56 146 
56 161 
56 164 
56 173 
56 176 
56 187 
56 191 
56 198 
56 206 
56 216 
56 221 
57 58 
57 59 
57 60 
57 72 
57 74 
57 87 
57 90 
57 96 
57 102 
57 116 
57 117 
57 130 
57 132 
57 142 
57 147 
57 151 
57 162 
57 177 
57 178 
57 189 
57 192 
57 200 
57 207 
57 214 
57 222 
58 59 
58 60 
58 72 
58 73 
58 86 
58 88 
58 100 
58 103 
58 114 
58 118 
58 128 
58 133 
58 141 
58 148 
58 157 
58 163 
58 170 
58 178 
58 184 
58 193 
58 208 
58 210 
58 212 
58 223 
59 60 
59 61 
59 74 
59 87 
59 89 
59 101 
59 104 
59 115 
59 119 
59 124 
59 134 
59 138 
59 149 
59 152 
59 164 
59 171 
59 179 
59 193 
59 194 
59 204 
59 209 
59 215 
59 224 
60 70 
60 75 
60 84 
60 90 
60 98 
60 105 
60 109 
60 120 
60 123 
60 135 
60 147 
60 150 
60 155 
60 165 
60 167 
60 180 
60 194 
60 195 
60 208 
60 210 
60 221 
60 225 
61 62 
61 63 
61 64 
61 65 
61 66 
61 67 
61 68 
61 69 
61 70 
61 71 
61 72 
61 73 
61 74 
61 75 
61 76 
61 87 
61 91 
61 101 
61 106 
61 115 
61 121 
61 124 
61 136 
61 138 
61 151 
61 152 
61 166 
61 171 
61 181 
61 193 
61 196 
61 204 
61 211 
61 215 
62 63 
62 64 
62 65 
62 66 
62 67 
62 68 
62 69 
62 70 
62 71 
62 72 
62 73 
62 74 
62 75 
62 77 
62 81 
62 92 
62 95 
62 107 
62 108 
62 122 
62 133 
62 137 
62 146 
62 152 
62 158 
62 167 
62 179 
62 181 
62 182 
62 197 
62 207 
62 212 
62 225 
63 64 
63 65 
63 66 
63 67 
63 68 
63 69 
63 70 
63 71 
63 72 
63 73 
63 74 
63 75 
63 78 
63 82 
63 93 
63 99 
63 108 
63 113 
63 123 
63 135 
63 138 
63 148 
63 153 
63 162 
63 168 
63 176 
63 183 
63 190 
63 197 
63 198 
63 211 
63 213 
64 65 
64 66 
64 67 
64 68 
64 69 
64 70 
64 71 
64 72 
64 73 
64 74 
64 75 
64 79 
64 80 
64 94 
64 105 
64 109 
64 112 
64 124 
64 134 
64 137 
64 139 
64 154 
64 156 
64 169 
64 177 
64 183 
64 184 
64 196 
64 199 
64 214 
64 223 
65 66 
65 67 
65 68 
65 69 
65 70 
65 71 
65 72 
65 73 
65 74 
65 75 
65 80 
65 85 
65 95 
65 103 
65 110 
65 120 
65 122 
65 125 
65 140 
65 144 
65 155 
65 164 
65 170 
65 173 
65 185 
65 187 
65 198 
65 200 
65 215 
65 216 
66 67 
66 68 
66 69 
66 70 
66 71 
66 72 
66 73 
66 74 
66 75 
66 81 
66 89 
66 91 
66 96 
66 111 
66 117 
66 126 
66 131 
66 141 
66 145 
66 156 
66 159 
66 169 
66 171 
66 185 
66 186 
66 201 
66 203 
66 216 
66 217 
67 68 
67 69 
67 70 
67 71 
67 72 
67 73 
67 74 
67 75 
67 82 
67 88 
67 94 
67 97 
67 106 
67 112 
67 127 
67 132 
67 142 
67 143 
67 157 
67 165 
67 172 
67 174 
67 186 
67 187 
67 202 
67 209 
67 213 
67 217 
68 69 
68 70 
68 71 
68 72 
68 73 
68 74 
68 75 
68 76 
68 83 
68 93 
68 98 
68 107 
68 113 
68 128 
68 129 
68 143 
68 150 
68 154 
68 158 
68 172 
68 173 
68 188 
68 191 
68 203 
68 205 
68 218 
68 222 
69 70 
69 71 
69 72 
69 73 
69 74 
69 75 
69 83 
69 84 
69 99 
69 102 
69 111 
69 114 
69 125 
69 129 
69 139 
69 144 
69 153 
69 159 
69 166 
69 174 
69 182 
69 189 
69 202 
69 204 
69 219 
69 224 
70 71 
70 72 
70 73 
70 74 
70 75 
70 84 
70 85 
70 98 
70 100 
70 109 
70 115 
70 123 
70 130 
70 145 
70 147 
70 155 
70 160 
70 167 
70 175 
70 190 
70 194 
70 205 
70 208 
70 220 
70 221 
71 72 
71 73 
71 74 
71 75 
71 77 
71 86 
71 101 
71 104 
71 116 
71 118 
71 127 
71 131 
71 136 
71 146 
71 160 
71 161 
71 176 
71 180 
71 188 
71 191 
71 201 
71 206 
71 219 
71 221 
72 73 
72 74 
72 75 
72 86 
72 87 
72 100 
72 102 
72 114 
72 117 
72 128 
72 132 
72 141 
72 147 
72 157 
72 162 
72 170 
72 177 
72 184 
72 192 
72 207 
72 210 
72 212 
72 222 
73 74 
73 75 
73 78 
73 88 
73 97 
73 103 
73 118 
73 119 
73 126 
73 133 
73 140 
73 148 
73 161 
73 163 
73 175 
73 178 
73 193 
73 195 
73 199 
73 208 
73 218 
73 223 
74 75 
74 89 
74 90 
74 96 
74 104 
74 116 
74 119 
74 130 
74 134 
74 142 
74 149 
74 151 
74 164 
74 178 
74 179 
74 189 
74 194 
74 200 
74 209 
74 214 
74 224 
75 79 
75 90 
75 92 
75 105 
75 110 
75 120 
75 121 
75 135 
75 149 
75 150 
75 163 
75 165 
75 168 
75 180 
75 192 
75 195 
75 206 
75 210 
75 220 
75 225 
76 77 
76 78 
76 79 
76 80 
76 81 
76 82 
76 83 
76 84 
76 85 
76 86 
76 87 
76 88 
76 89 
76 90 
76 91 
76 93 
76 106 
76 107 
76 121 
76 129 
76 136 
76 150 
76 151 
76 154 
76 166 
76 172 
76 181 
76 191 
76 196 
76 205 
76 211 
76 222 
77 78 
77 79 
77 80 
77 81 
77 82 
77 83 
77 84 
77 85 
77 86 
77 87 
77 88 
77 89 
77 90 
77 92 
77 104 
77 107 
77 118 
77 122 
77 127 
77 136 
77 137 
77 152 
77 160 
77 167 
77 180 
77 182 
77 188 
77 197 
77 201 
77 212 
77 219 
78 79 
78 80 
78 81 
78 82 
78 83 
78 84 
78 85 
78 86 
78 87 
78 88 
78 89 
78 90 
78 93 
78 97 
78 108 
78 119 
78 123 
78 126 
78 138 
78 140 
78 153 
78 161 
78 168 
78 175 
78 183 
78 195 
78 198 
78 199 
78 213 
78 218 
79 80 
79 81 
79 82 
79 83 
79 84 
79 85 
79 86 
79 87 
79 88 
79 89 
79 90 
79 92 
79 94 
79 109 
79 110 
79 121 
79 124 
79 139 
79 149 
79 154 
79 163 
79 168 
79 169 
79 184 
79 192 
79 199 
79 206 
79 214 
79 220 
80 81 
80 82 
80 83 
80 84 
80 85 
80 86 
80 87 
80 88 
80 89 
80 90 
80 95 
80 105 
80 110 
80 112 
80 125 
80 134 
80 137 
80 140 
80 155 
80 156 
80 170 
80 177 
80 183 
80 185 
80 196 
80 200 
80 215 
80 223 
81 82 
81 83 
81 84 
81 85 
81 86 
81 87 
81 88 
81 89 
81 90 
81 95 
81 96 
81 108 
81 111 
81 126 
81 133 
81 141 
81 146 
81 156 
81 158 
81 171 
81 179 
81 181 
81 186 
81 201 
81 207 
81 216 
81 225 
82 83 
82 84 
82 85 
82 86 
82 87 
82 88 
82 89 
82 90 
82 97 
82 99 
82 112 
82 113 
82 127 
82 135 
82 142 
82 148 
82 157 
82 162 
82 172 
82 176 
82 187 
82 190 
82 197 
82 202 
82 211 
82 217 
83 84 
83 85 
83 86 
83 87 
83 88 
83 89 
83 90 
83 98 
83 102 
83 111 
83 113 
83 125 
83 128 
83 139 
83 143 
83 153 
83 158 
83 166 
83 173 
83 182 
83 188 
83 202 
83 203 
83 218 
83 224 
84 85 
84 86 
84 87 
84 88 
84 89 
84 90 
84 98 
84 99 
84 109 
84 114 
84 123 
84 129 
84 144 
84 147 
84 155 
84 159 
84 167 
84 174 
84 189 
84 194 
84 204 
84 208 
84 219 
84 221 
85 86 
85 87 
85 88 
85 89 
85 90 
85 100 
85 103 
85 115 
85 120 
85 122 
85 130 
85 144 
85 145 
85 160 
85 164 
85 173 
85 175 
85 187 
85 190 
85 198 
85 205 
85 216 
85 220 
86 87 
86 88 
86 89 
86 90 
86 100 
86 101 
86 114 
86 116 
86 128 
86 131 
86 141 
86 146 
86 157 
86 161 
86 170 
86 176 
86 184 
86 191 
86 206 
86 210 
86 212 
86 221 
87 88 
87 89 
87 90 
87 101 
87 102 
87 115 
87 117 
87 124 
87 132 
87 138 
87 147 
87 152 
87 162 
87 171 
87 177 
87 192 
87 193 
87 204 
87 207 
87 215 
87 222 
88 89 
88 90 
88 94 
88 103 
88 106 
88 118 
88 132 
88 133 
88 143 
88 148 
88 163 
88 165 
88 174 
88 178 
88 186 
88 193 
88 208 
88 209 
88 213 
88 223 
89 90 
89 91 
89 104 
89 117 
89 119 
89 131 
89 134 
89 145 
89 149 
89 159 
89 164 
89 169 
89 179 
89 185 
89 194 
89 203 
89 209 
89 217 
89 224 
90 96 
90 105 
90 116 
90 120 
90 130 
90 135 
90 142 
90 150 
90 151 
90 165 
90 178 
90 180 
90 189 
90 195 
90 200 
90 210 
90 214 
90 225 
91 92 
91 93 
91 94 
91 95 
91 96 
91 97 
91 98 
91 99 
91 100 
91 101 
91 102 
91 103 
91 104 
91 105 
91 106 
91 117 
91 121 
91 131 
91 136 
91 145 
91 151 
91 159 
91 166 
91 169 
91 181 
91 185 
91 196 
91 203 
91 211 
91 217 
92 93 
92 94 
92 95 
92 96 
92 97 
92 98 
92 99 
92 100 
92 101 
92 102 
92 103 
92 104 
92 105 
92 107 
92 110 
92 121 
92 122 
92 137 
92 149 
92 152 
92 163 
92 167 
92 168 
92 182 
92 192 
92 197 
92 206 
92 212 
92 220 
93 94 
93 95 
93 96 
93 97 
93 98 
93 99 
93 100 
93 101 
93 102 
93 103 
93 104 
93 105 
93 107 
93 108 
93 123 
93 129 
93 138 
93 150 
93 153 
93 154 
93 168 
93 172 
93 183 
93 191 
93 198 
93 205 
93 213 
93 222 
94 95 
94 96 
94 97 
94 98 
94 99 
94 100 
94 101 
94 102 
94 103 
94 104 
94 105 
94 106 
94 109 
94 124 
94 132 
94 139 
94 143 
94 154 
94 165 
94 169 
94 174 
94 184 
94 186 
94 199 
94 209 
94 213 
94 214 
95 96 
95 97 
95 98 
95 99 
95 100 
95 101 
95 102 
95 103 
95 104 
95 105 
95 108 
95 110 
95 125 
95 133 
95 140 
95 146 
95 155 
95 158 
95 170 
95 179 
95 181 
95 185 
95 200 
95 207 
95 215 
95 225 
96 97 
96 98 
96 99 
96 100 
96 101 
96 102 
96 103 
96 104 
96 105 
96 111 
96 116 
96 126 
96 130 
96 141 
96 142 
96 151 
96 156 
96 171 
96 178 
96 186 
96 189 
96 200 
96 201 
96 214 
96 216 
97 98 
97 99 
97 100 
97 101 
97 102 
97 103 
97 104 
97 105 
97 112 
97 119 
97 126 
97 127 
97 140 
97 142 
97 157 
97 161 
97 172 
97 175 
97 187 
97 195 
97 199 
97 202 
97 217 
97 218 
98 99 
98 100 
98 101 
98 102 
98 103 
98 104 
98 105 
98 109 
98 113 
98 123 
98 128 
98 143 
98 147 
98 155 
98 158 
98 167 
98 173 
98 188 
98 194 
98 203 
98 208 
98 218 
98 221 
99 100 
99 101 
99 102 
99 103 
99 104 
99 105 
99 113 
99 114 
99 129 
99 135 
99 144 
99 148 
99 159 
99 162 
99 174 
99 176 
99 189 
99 190 
99 197 
99 204 
99 211 
99 219 
100 101 
100 102 
100 103 
100 104 
100 105 
100 114 
100 115 
100 128 
100 130 
100 141 
100 145 
100 157 
100 160 
100 170 
100 175 
100 184 
100 190 
100 205 
100 210 
100 212 
100 220 
101 102 
101 103 
101 104 
101 105 
101 115 
101 116 
101 124 
101 131 
101 138 
101 146 
101 152 
101 161 
101 171 
101 176 
101 191 
101 193 
101 204 
101 206 
101 215 
101 221 
102 103 
102 104 
102 105 
102 111 
102 117 
102 125 
102 132 
102 139 
102 147 
102 153 
102 162 
102 166 
102 177 
102 182 
102 192 
102 202 
102 207 
102 222 
102 224 
103 104 
103 105 
103 118 
103 120 
103 122 
103 133 
103 144 
103 148 
103 163 
103 164 
103 173 
103 178 
103 187 
103 193 
103 198 
103 208 
103 216 
103 223 
104 105 
104 118 
104 119 
104 127 
104 134 
104 136 
104 149 
104 160 
104 164 
104 179 
104 180 
104 188 
104 194 
104 201 
104 209 
104 219 
104 224 
105 112 
105 120 
105 134 
105 135 
105 137 
105 150 
105 156 
105 165 
105 177 
105 180 
105 183 
105 195 
105 196 
105 210 
105 223 
105 225 
106 107 
106 108 
106 109 
106 110 
106 111 
106 112 
106 113 
106 114 
106 115 
106 116 
106 117 
106 118 
106 119 
106 120 
106 121 
106 132 
106 136 
106 143 
106 151 
106 165 
106 166 
106 174 
106 181 
106 186 
106 196 
106 209 
106 211 
106 213 
107 108 
107 109 
107 110 
107 111 
107 112 
107 113 
107 114 
107 115 
107 116 
107 117 
107 118 
107 119 
107 120 
107 122 
107 129 
107 137 
107 150 
107 152 
107 154 
107 167 
107 172 
107 182 
107 191 
107 197 
107 205 
107 212 
107 222 
108 109 
108 110 
108 111 
108 112 
108 113 
108 114 
108 115 
108 116 
108 117 
108 118 
108 119 
108 120 
108 123 
108 133 
108 138 
108 146 
108 153 
108 158 
108 168 
108 179 
108 181 
108 183 
108 198 
108 207 
108 213 
108 225 
109 110 
109 111 
109 112 
109 113 
109 114 
109 115 
109 116 
109 117 
109 118 
109 119 
109 120 
109 123 
109 124 
109 139 
109 147 
109 154 
109 155 
109 167 
109 169 
109 184 
109 194 
109 199 
109 208 
109 214 
109 221 
110 111 
110 112 
110 113 
110 114 
110 115 
110 116 
110 117 
110 118 
110 119 
110 120 
110 121 
110 125 
110 140 
110 149 
110 155 
110 163 
110 168 
110 170 
110 185 
110 192 
110 200 
110 206 
110 215 
110 220 
111 112 
111 113 
111 114 
111 115 
111 116 
111 117 
111 118 
111 119 
111 120 
111 125 
111 126 
111 139 
111 141 
111 153 
111 156 
111 166 
111 171 
111 182 
111 186 
111 201 
111 202 
111 216 
111 224 
112 113 
112 114 
112 115 
112 116 
112 117 
112 118 
112 119 
112 120 
112 127 
112 134 
112 137 
112 142 
112 156 
112 157 
112 172 
112 177 
112 183 
112 187 
112 196 
112 202 
112 217 
112 223 
113 114 
113 115 
113 116 
113 117 
113 118 
113 119 
113 120 
113 128 
113 135 
113 143 
113 148 
113 158 
113 162 
113 173 
113 176 
113 188 
113 190 
113 197 
113 203 
113 211 
113 218 
114 115 
114 116 
114 117 
114 118 
114 119 
114 120 
114 128 
114 129 
114 141 
114 144 
114 157 
114 159 
114 170 
114 174 
114 184 
114 189 
114 204 
114 210 
114 212 
114 219 
115 116 
115 117 
115 118 
115 119 
115 120 
115 124 
115 130 
115 138 
115 145 
115 152 
115 160 
115 171 
115 175 
115 190 
115 193 
115 204 
115 205 
115 215 
115 220 
116 117 
116 118 
116 119 
116 120 
116 130 
116 131 
116 142 
116 146 
116 151 
116 161 
116 176 
116 178 
116 189 
116 191 
116 200 
116 206 
116 214 
116 221 
117 118 
117 119 
117 120 
117 131 
117 132 
117 145 
117 147 
117 159 
117 162 
117 169 
117 177 
117 185 
117 192 
117 203 
117 207 
117 217 
117 222 
118 119 
118 120 
118 127 
118 133 
118 136 
118 148 
118 160 
118 163 
118 178 
118 180 
118 188 
118 193 
118 201 
118 208 
118 219 
118 223 
119 120 
119 126 
119 134 
119 140 
119 149 
119 161 
119 164 
119 175 
119 179 
119 194 
119 195 
119 199 
119 209 
119 218 
119 224 
120 122 
120 135 
120 144 
120 150 
120 164 
120 165 
120 173 
120 180 
120 187 
120 195 
120 198 
120 210 
120 216 
120 225 
121 122 
121 123 
121 124 
121 125 
121 126 
121 127 
121 128 
121 129 
121 130 
121 131 
121 132 
121 133 
121 134 
121 135 
121 136 
121 149 
121 151 
121 163 
121 166 
121 168 
121 181 
121 192 
121 196 
121 206 
121 211 
121 220 
122 123 
122 124 
122 125 
122 126 
122 127 
122 128 
122 129 
122 130 
122 131 
122 132 
122 133 
122 134 
122 135 
122 137 
122 144 
122 152 
122 164 
122 167 
122 173 
122 182 
122 187 
122 197 
122 198 
122 212 
122 216 
123 124 
123 125 
123 126 
123 127 
123 128 
123 129 
123 130 
123 131 
123 132 
123 133 
123 134 
123 135 
123 138 
123 147 
123 153 
123 155 
123 167 
123 168 
123 183 
123 194 
123 198 
123 208 
123 213 
123 221 
124 125 
124 126 
124 127 
124 128 
124 129 
124 130 
124 131 
124 132 
124 133 
124 134 
124 135 
124 138 
124 139 
124 152 
124 154 
124 169 
124 171 
124 184 
124 193 
124 199 
124 204 
124 214 
124 215 
125 126 
125 127 
125 128 
125 129 
125 130 
125 131 
125 132 
125 133 
125 134 
125 135 
125 139 
125 140 
125 153 
125 155 
125 166 
125 170 
125 182 
125 185 
125 200 
125 202 
125 215 
125 224 
126 127 
126 128 
126 129 
126 130 
126 131 
126 132 
126 133 
126 134 
126 135 
126 140 
126 141 
126 156 
126 161 
126 171 
126 175 
126 186 
126 195 
126 199 
126 201 
126 216 
126 218 
127 128 
127 129 
127 130 
127 131 
127 132 
127 133 
127 134 
127 135 
127 136 
127 142 
127 157 
127 160 
127 172 
127 180 
127 187 
127 188 
127 201 
127 202 
127 217 
127 219 
128 129 
128 130 
128 131 
128 132 
128 133 
128 134 
128 135 
128 141 
128 143 
128 157 
128 158 
128 170 
128 173 
128 184 
128 188 
128 203 
128 210 
128 212 
128 218 
129 130 
129 131 
129 132 
129 133 
129 134 
129 135 
129 144 
129 150 
129 154 
129 159 
129 172 
129 174 
129 189 
129 191 
129 204 
129 205 
129 219 
129 222 
130 131 
130 132 
130 133 
130 134 
130 135 
130 142 
130 145 
130 151 
130 160 
130 175 
130 178 
130 189 
130 190 
130 200 
130 205 
130 214 
130 220 
131 132 
131 133 
131 134 
131 135 
131 145 
131 146 
131 159 
131 161 
131 169 
131 176 
131 185 
131 191 
131 203 
131 206 
131 217 
131 221 
132 133 
132 134 
132 135 
132 143 
132 147 
132 162 
132 165 
132 174 
132 177 
132 186 
132 192 
132 207 
132 209 
132 213 
132 222 
133 134 
133 135 
133 146 
133 148 
133 158 
133 163 
133 178 
133 179 
133 181 
133 193 
133 207 
133 208 
133 223 
133 225 
134 135 
134 137 
134 149 
134 156 
134 164 
134 177 
134 179 
134 183 
134 194 
134 196 
134 209 
134 223 
134 224 
135 148 
135 150 
135 162 
135 165 
135 176 
135 180 
135 190 
135 195 
135 197 
135 210 
135 211 
135 225 
136 137 
136 138 
136 139 
136 140 
136 141 
136 142 
136 143 
136 144 
136 145 
136 146 
136 147 
136 148 
136 149 
136 150 
136 151 
136 160 
136 166 
136 180 
136 181 
136 188 
136 196 
136 201 
136 211 
136 219 
137 138 
137 139 
137 140 
137 141 
137 142 
137 143 
137 144 
137 145 
137 146 
137 147 
137 148 
137 149 
137 150 
137 152 
137 156 
137 167 
137 177 
137 182 
137 183 
137 196 
137 197 
137 212 
137 223 
138 139 
138 140 
138 141 
138 142 
138 143 
138 144 
138 145 
138 146 
138 147 
138 148 
138 149 
138 150 
138 152 
138 153 
138 168 
138 171 
138 183 
138 193 
138 198 
138 204 
138 213 
138 215 
139 140 
139 141 
139 142 
139 143 
139 144 
139 145 
139 146 
139 147 
139 148 
139 149 
139 150 
139 153 
139 154 
139 166 
139 169 
139 182 
139 184 
139 199 
139 202 
139 214 
139 224 
140 141 
140 142 
140 143 
140 144 
140 145 
140 146 
140 147 
140 148 
140 149 
140 150 
140 155 
140 161 
140 170 
140 175 
140 185 
140 195 
140 199 
140 200 
140 215 
140 218 
141 142 
141 143 
141 144 
141 145 
141 146 
141 147 
141 148 
141 149 
141 150 
141 156 
141 157 
141 170 
141 171 
141 184 
141 186 
141 201 
141 210 
141 212 
141 216 
142 143 
142 144 
142 145 
142 146 
142 147 
142 148 
142 149 
142 150 
142 151 
142 157 
142 172 
142 178 
142 187 
142 189 
142 200 
142 202 
142 214 
142 217 
143 144 
143 145 
143 146 
143 147 
143 148 
143 149 
143 150 
143 158 
143 165 
143 173 
143 174 
143 186 
143 188 
143 203 
143 209 
143 213 
143 218 
144 145 
144 146 
144 147 
144 148 
144 149 
144 150 
144 159 
144 164 
144 173 
144 174 
144 187 
144 189 
144 198 
144 204 
144 216 
144 219 
145 146 
145 147 
145 148 
145 149 
145 150 
145 159 
145 160 
145 169 
145 175 
145 185 
145 190 
145 203 
145 205 
145 217 
145 220 
146 147 
146 148 
146 149 
146 150 
146 158 
146 161 
146 176 
146 179 
146 181 
146 191 
146 206 
146 207 
146 221 
146 225 
147 148 
147 149 
147 150 
147 155 
147 162 
147 167 
147 177 
147 192 
147 194 
147 207 
147 208 
147 221 
147 222 
148 149 
148 150 
148 162 
148 163 
148 176 
148 178 
148 190 
148 193 
148 197 
148 208 
148 211 
148 223 
149 150 
149 163 
149 164 
149 168 
149 179 
149 192 
149 194 
149 206 
149 209 
149 220 
149 224 
150 154 
150 165 
150 172 
150 180 
150 191 
150 195 
150 205 
150 210 
150 222 
150 225 
151 152 
151 153 
151 154 
151 155 
151 156 
151 157 
151 158 
151 159 
151 160 
151 161 
151 162 
151 163 
151 164 
151 165 
151 166 
151 178 
151 181 
151 189 
151 196 
151 200 
151 211 
151 214 
152 153 
152 154 
152 155 
152 156 
152 157 
152 158 
152 159 
152 160 
152 161 
152 162 
152 163 
152 164 
152 165 
152 167 
152 171 
152 182 
152 193 
152 197 
152 204 
152 212 
152 215 
153 154 
153 155 
153 156 
153 157 
153 158 
153 159 
153 160 
153 161 
153 162 
153 163 
153 164 
153 165 
153 166 
153 168 
153 182 
153 183 
153 198 
153 202 
153 213 
153 224 
154 155 
154 156 
154 157 
154 158 
154 159 
154 160 
154 161 
154 162 
154 163 
154 164 
154 165 
154 169 
154 172 
154 184 
154 191 
154 199 
154 205 
154 214 
154 222 
155 156 
155 157 
155 158 
155 159 
155 160 
155 161 
155 162 
155 163 
155 164 
155 165 
155 167 
155 170 
155 185 
155 194 
155 200 
155 208 
155 215 
155 221 
156 157 
156 158 
156 159 
156 160 
156 161 
156 162 
156 163 
156 164 
156 165 
156 171 
156 177 
156 183 
156 186 
156 196 
156 201 
156 216 
156 223 
157 158 
157 159 
157 160 
157 161 
157 162 
157 163 
157 164 
157 165 
157 170 
157 172 
157 184 
157 187 
157 202 
157 210 
157 212 
157 217 
158 159 
158 160 
158 161 
158 162 
158 163 
158 164 
158 165 
158 173 
158 179 
158 181 
158 188 
158 203 
158 207 
158 218 
158 225 
159 160 
159 161 
159 162 
159 163 
159 164 
159 165 
159 169 
159 174 
159 185 
159 189 
159 203 
159 204 
159 217 
159 219 
160 161 
160 162 
160 163 
160 164 
160 165 
160 175 
160 180 
160 188 
160 190 
160 201 
160 205 
160 219 
160 220 
161 162 
161 163 
161 164 
161 165 
161 175 
161 176 
161 191 
161 195 
161 199 
161 206 
161 218 
161 221 
162 163 
162 164 
162 165 
162 176 
162 177 
162 190 
162 192 
162 197 
162 207 
162 211 
162 222 
163 164 
163 165 
163 168 
163 178 
163 192 
163 193 
163 206 
163 208 
163 220 
163 223 
164 165 
164 173 
164 179 
164 187 
164 194 
164 198 
164 209 
164 216 
164 224 
165 174 
165 180 
165 186 
165 195 
165 209 
165 210 
165 213 
165 225 
166 167 
166 168 
166 169 
166 170 
166 171 
166 172 
166 173 
166 174 
166 175 
166 176 
166 177 
166 178 
166 179 
166 180 
166 181 
166 182 
166 196 
166 202 
166 211 
166 224 
167 168 
167 169 
167 170 
167 171 
167 172 
167 173 
167 174 
167 175 
167 176 
167 177 
167 178 
167 179 
167 180 
167 182 
167 194 
167 197 
167 208 
167 212 
167 221 
168 169 
168 170 
168 171 
168 172 
168 173 
168 174 
168 175 
168 176 
168 177 
168 178 
168 179 
168 180 
168 183 
168 192 
168 198 
168 206 
168 213 
168 220 
169 170 
169 171 
169 172 
169 173 
169 174 
169 175 
169 176 
169 177 
169 178 
169 179 
169 180 
169 184 
169 185 
169 199 
169 203 
169 214 
169 217 
170 171 
170 172 
170 173 
170 174 
170 175 
170 176 
170 177 
170 178 
170 179 
170 180 
170 184 
170 185 
170 200 
170 210 
170 212 
170 215 
171 172 
171 173 
171 174 
171 175 
171 176 
171 177 
171 178 
171 179 
171 180 
171 186 
171 193 
171 201 
171 204 
171 215 
171 216 
172 173 
172 174 
172 175 
172 176 
172 177 
172 178 
172 179 
172 180 
172 187 
172 191 
172 202 
172 205 
172 217 
172 222 
173 174 
173 175 
173 176 
173 177 
173 178 
173 179 
173 180 
173 187 
173 188 
173 198 
173 203 
173 216 
173 218 
174 175 
174 176 
174 177 
174 178 
174 179 
174 180 
174 186 
174 189 
174 204 
174 209 
174 213 
174 219 
175 176 
175 177 
175 178 
175 179 
175 180 
175 190 
175 195 
175 199 
175 205 
175 218 
175 220 
176 177 
176 178 
176 179 
176 180 
176 190 
176 191 
176 197 
176 206 
176 211 
176 221 
177 178 
177 179 
177 180 
177 183 
177 192 
177 196 
177 207 
177 222 
177 223 
178 179 
178 180 
178 189 
178 193 
178 200 
178 208 
178 214 
178 223 
179 180 
179 181 
179 194 
179 207 
179 209 
179 224 
179 225 
180 188 
180 195 
180 201 
180 210 
180 219 
180 225 
181 182 
181 183 
181 184 
181 185 
181 186 
181 187 
181 188 
181 189 
181 190 
181 191 
181 192 
181 193 
181 194 
181 195 
181 196 
181 207 
181 211 
181 225 
182 183 
182 184 
182 185 
182 186 
182 187 
182 188 
182 189 
182 190 
182 191 
182 192 
182 193 
182 194 
182 195 
182 197 
182 202 
182 212 
182 224 
183 184 
183 185 
183 186 
183 187 
183 188 
183 189 
183 190 
183 191 
183 192 
183 193 
183 194 
183 195 
183 196 
183 198 
183 213 
183 223 
184 185 
184 186 
184 187 
184 188 
184 189 
184 190 
184 191 
184 192 
184 193 
184 194 
184 195 
184 199 
184 210 
184 212 
184 214 
185 186 
185 187 
185 188 
185 189 
185 190 
185 191 
185 192 
185 193 
185 194 
185 195 
185 200 
185 203 
185 215 
185 217 
186 187 
186 188 
186 189 
186 190 
186 191 
186 192 
186 193 
186 194 
186 195 
186 201 
186 209 
186 213 
186 216 
187 188 
187 189 
187 190 
187 191 
187 192 
187 193 
187 194 
187 195 
187 198 
187 202 
187 216 
187 217 
188 189 
188 190 
188 191 
188 192 
188 193 
188 194 
188 195 
188 201 
188 203 
188 218 
188 219 
189 190 
189 191 
189 192 
189 193 
189 194 
189 195 
189 200 
189 204 
189 214 
189 219 
190 191 
190 192 
190 193 
190 194 
190 195 
190 197 
190 205 
190 211 
190 220 
191 192 
191 193 
191 194 
191 195 
191 205 
191 206 
191 221 
191 222 
192 193 
192 194 
192 195 
192 206 
192 207 
192 220 
192 222 
193 194 
193 195 
193 204 
193 208 
193 215 
193 223 
194 195 
194 208 
194 209 
194 221 
194 224 
195 199 
195 210 
195 218 
195 225 
196 197 
196 198 
196 199 
196 200 
196 201 
196 202 
196 203 
196 204 
196 205 
196 206 
196 207 
196 208 
196 209 
196 210 
196 211 
196 223 
197 198 
197 199 
197 200 
197 201 
197 202 
197 203 
197 204 
197 205 
197 206 
197 207 
197 208 
197 209 
197 210 
197 211 
197 212 
198 199 
198 200 
198 201 
198 202 
198 203 
198 204 
198 205 
198 206 
198 207 
198 208 
198 209 
198 210 
198 213 
198 216 
199 200 
199 201 
199 202 
199 203 
199 204 
199 205 
199 206 
199 207 
199 208 
199 209 
199 210 
199 214 
199 218 
200 201 
200 202 
200 203 
200 204 
200 205 
200 206 
200 207 
200 208 
200 209 
200 210 
200 214 
200 215 
201 202 
201 203 
201 204 
201 205 
201 206 
201 207 
201 208 
201 209 
201 210 
201 216 
201 219 
202 203 
202 204 
202 205 
202 206 
202 207 
202 208 
202 209 
202 210 
202 217 
202 224 
203 204 
203 205 
203 206 
203 207 
203 208 
203 209 
203 210 
203 217 
203 218 
204 205 
204 206 
204 207 
204 208 
204 209 
204 210 
204 215 
204 219 
205 206 
205 207 
205 208 
205 209 
205 210 
205 220 
205 222 
206 207 
206 208 
206 209 
206 210 
206 220 
206 221 
207 208 
207 209 
207 210 
207 222 
207 225 
208 209 
208 210 
208 221 
208 223 
209 210 
209 213 
209 224 
210 212 
210 225 
211 212 
211 213 
211 214 
211 215 
211 216 
211 217 
211 218 
211 219 
211 220 
211 221 
211 222 
211 223 
211 224 
211 225 
212 213 
212 214 
212 215 
212 216 
212 217 
212 218 
212 219 
212 220 
212 221 
212 222 
212 223 
212 224 
212 225 
213 214 
213 215 
213 216 
213 217 
213 218 
213 219 
213 220 
213 221 
213 222 
213 223 
213 224 
213 225 
214 215 
214 216 
214 217 
214 218 
214 219 
214 220 
214 221 
214 222 
214 223 
214 224 
214 225 
215 216 
215 217 
215 218 
215 219 
215 220 
215 221 
215 222 
215 223 
215 224 
215 225 
216 217 
216 218 
216 219 
216 220 
216 221 
216 222 
216 223 
216 224 
216 225 
217 218 
217 219 
217 220 
217 221 
217 222 
217 223 
217 224 
217 225 
218 219 
218 220 
218 221 
218 222 
218 223 
218 224 
218 225 
219 220 
219 221 
219 222 
219 223 
219 224 
219 225 
220 221 
220 222 
220 223 
220 224 
220 225 
221 222 
221 223 
221 224 
221 225 
222 223 
222 224 
222 225 
223 224 
223 225 
224 225 
